60
14 16
5 6
2 28
6 29
8 51
19 6
20 10
17 30
22 44
29 91
16 58
24 59
7 98
4 24
27 71
28 34
22 81
18 3
13 3
25 45
20 61
12 53
24 61
7 61
3 5
4 85
5 18
17 89
24 2
24 60
26 41
23 13
15 37
1 32
16 98
10 47
22 78
28 83
3 85
22 94
1 45
14 55
14 77
30 81
12 59
19 5
28 89
7 23
4 32
1 19
16 82
9 42
15 17
13 96
2 19
6 94
21 24
20 29
11 96
24 30
